c This is QMaxSAT 2017 based on 14.07
c This is Glucose 3.0
c This is MiniSat 2.2.0
c WARNING: for repeatability, setting FPU to use double precision
c card = mrwto, comp = 0, pmodel = 0, narr = 2, mct = 24, verb = 0
cr firstCPXsol 0 0 0
c top = 81479
c |  Number of variables:    1572811                                          |
c |  Number of clauses:      75996696                                         |
c |  Weight of hard clauses: 81479                                            |
c |  Number of soft clauses: 1104                                             |
c |  Number of unit soft clauses: 1104                                        |
c |  Maximum Cardinality (by unit): 162956       (162956      )               |
c last restart ## conflicts  :  42 161840 
o 2382 | cpuTime 1063.67 s
c Sum of weights = 81478
c A number of soft clauses remained = 552
c MRWTO encoding for Pseudo-Boolean Constraints
c sizeMax=2382
c No.0 Divisor=14	generated by pow1
c No.1 Divisor=14	generated by pow1
c No.2 Divisor=14	generated by pow1
c p0= 14	p1= 14	p2= 14	
c number of digits = 4
c linkingVar[0].size = 14, linkingVar[1].size = 14, linkingVar[2].size = 13, linkingVar[3].size = 1, 
c Pseudo-Boolean Constraints: 12916 variables and 144371 clauses
c Sum of weights = 81478
c A number of soft clauses remained = 552
c MRWTO encoding for Pseudo-Boolean Constraints
c sizeMax=2382
c No.0 Divisor=14	generated by pow1
c No.1 Divisor=14	generated by pow1
c No.2 Divisor=14	generated by pow1
c p0= 14	p1= 14	p2= 14	
c number of digits = 4
c linkingVar[0].size = 14, linkingVar[1].size = 14, linkingVar[2].size = 13, linkingVar[3].size = 1, 
c Pseudo-Boolean Constraints: 12916 variables and 144371 clauses
c last restart ## conflicts  :  244 166330 
o 1944 | cpuTime 1064.51 s
c last restart ## conflicts  :  190 165967 
o 1549 | cpuTime 1605.83 s
c last restart ## conflicts  :  154 165849 
o 1368 | cpuTime 2079.84 s
c last restart ## conflicts  :  525 173004 
o 1175 | cpuTime 2609.78 s
c last restart ## conflicts  :  385 189327 
o 1098 | cpuTime 2726.25 s
s UNKNOWN
c Search is stopped by a limit (maybe time-limit)
cr positiVarArr: [ | 12@1(1->12) | 38@1(2->14) | 104@1(5->8) | 160@1(7->16) | 175@1(8->7) | 281@1(12->17) | 317@1(14->5) | 355@1(15->19) | 361@1(16->1) | 399@1(17->15) | 454@1(19->22) | 528@1(22->24) | 554@1(24->2) | 582@2(1->6) | 642@2(3->18) | 649@2(4->1) | 699@2(6->3) | 791@2(9->23) | 812@2(10->20) | 837@2(11->21) | 873@2(13->9) | 995@2(18->11) | 1045@2(20->13) | 1066@2(21->10) | 1108@2(23->4) | ]
cr the 1-th chain: [ 1->12->17->15->19->22->24->2->14->5->8->7->16->1 ] (#non-depot=12) {#cumul.=13}
cr the 2-th chain: [ 1->6->3->18->11->21->10->20->13->9->23->4->1 ] (#non-depot=11) {#cumul.=24}
c Latest Answer = 0 by 6 loops
c restarts              : 10905
c conflicts             : 1334375        (371 /sec)
c decisions             : 11919038       (0.00 % random) (3311 /sec)
c propagations          : 20680979308    (5745691 /sec)
c conflict literals     : 142998172      (16.23 % deleted)
c Memory used           : 7308.00 MB
c CPU time              : 3599.39 s
